20
    1    91    29
    2    60    65
    3    61    71
    4     9    60
    5    79    45
    6    46    71
    7    19    22
    8    57    97
    9     8     6
   10    84    91
   11    20    57
   12    72    60
   13    32    49
   14    31    89
   15    28     2
   16    81    30
   17    55    90
   18    43    25
   19   100    82
   20    27    19
524